
        $ From http://www.csplib.org/Problems/prob009/data/helmut.pdf
        $ Problem number 60
        $ Sequence length : 25
        language ESSENCE' 1.0
        letting sizemaster be 264
        letting sizes be sequence(3,8,12,13,16,18,20,21,22,24,26,29,34,38,40,42,43,47,54,59,64,70,71,130,134)
        